62      4       
28      20      18      17      
0       0       0       0       0       3       2       3       4       
5       0       0       1       0       1       36      
4       0       0       0       5       3       5       6       8       
6       0       0       1       0       2       6       27      
4       0       0       7       0       3       7       13      17      
3       0       6       0       0       2       9       51      
6       0       0       4       0       3       10      11      33      
3       0       0       7       0       2       30      42      
3       0       1       0       0       3       18      23      44      
7       0       6       0       0       3       12      15      50      
5       0       0       2       0       3       14      24      60      
1       0       0       4       0       3       20      25      27      
8       0       3       0       0       3       21      22      47      
10      0       4       0       0       3       16      29      35      
8       0       0       8       0       3       28      32      59      
3       7       0       0       0       1       42      
4       0       0       0       3       1       19      
5       0       0       0       10      1       31      
9       0       0       1       0       1       42      
1       0       0       0       6       1       57      
2       0       0       0       5       1       34      
9       0       3       0       0       2       38      40      
3       3       0       0       0       1       26      
5       0       1       0       0       1       43      
10      0       6       0       0       1       26      
6       8       0       0       0       1       52      
10      0       6       0       0       1       39      
5       0       6       0       0       1       31      
9       0       0       2       0       1       57      
2       0       0       0       7       1       58      
8       6       0       0       0       1       60      
8       0       0       2       0       1       56      
8       0       2       0       0       1       45      
1       0       6       0       0       1       37      
4       0       0       8       0       1       41      
7       10      0       0       0       2       52      56      
9       0       0       0       7       1       41      
5       0       0       0       10      2       43      48      
10      0       7       0       0       1       48      
6       6       0       0       0       2       41      49      
6       8       0       0       0       2       45      55      
9       0       0       6       0       1       50      
9       0       1       0       0       1       46      
4       6       0       0       0       1       61      
4       0       0       0       5       1       54      
9       0       0       7       0       1       49      
3       3       0       0       0       2       53      55      
8       2       0       0       0       1       53      
2       0       0       0       8       2       50      57      
4       0       0       2       0       1       54      
2       6       0       0       0       1       54      
1       7       0       0       0       1       61      
5       0       0       8       0       1       60      
3       0       9       0       0       1       58      
4       0       7       0       0       1       59      
4       6       0       0       0       1       58      
3       0       0       0       6       1       59      
5       0       0       0       1       1       61      
4       0       0       8       0       1       62      
10      0       7       0       0       1       62      
1       0       0       6       0       1       62      
0       0       0       0       0       0       